25798 25322 24742 24039 23381 22905 22536 22274 21799 21677 20927 20864 20665 20543 20151 20098 20040 19843 19709 19457 19299 19001 18718 18601 18341 18029 17793 17545 17399 17120 17036 16851 16586 16409 16305 16134 15961 15847 15780 15653 15560 15451 15302 15271 15109 15049 14944 14824 14792 14721 14676 14564 14488 14340 14265 14221 14155 14029 13985 13948 13880 13877 13815 13758 13728 13599 13565 13479 13438 13367 13330 13261 13195 13159 12998 12993 12825 12693 12556 12475 12467 12426 12403 12362 12329 12313 12283 12235 12170 12133 12103 12039 11952 11914 11867 11853 11777 11763 11726 11726 11748 11701 11685 11658 11629 11604 11586 11535 11451 11451 11428 11404 11360 11352 11307 11288 11256 11206 11157 11139 11094 11091 11091 11063 11058 11010 10984 10978 10941 10932 10912 10902 10871 10856 10839 10839 10817 10790 10762 10746 10755 10758 10701 10701 10731 10690 10661 10698 10692 10683 10713 10668 10652 10640 10606 10598 10598 10602 10587 10571 10570 10535 10523 10535 10486 10443 10442 10470 10461 10501 10494 10494 10482 10479 10486 10479 10463 10443 10427 10407 10425 10406 10406 10354 10354 10363 10358 10353 10333 10333 10333 10320 10300 10297 10299 10249 10280 10273 10242 10233 10201 10186 10177 10126 10141 10122 10072 10056 10040 10016 10010 10006 9956 9945 9906 9936 9871 9871 9848 9832 9870 9863 9864 9864 9885 9848 9891 9835 9887 9858 9858 9864 9854 9771 9770 9736 9759 9754 9745 9741 9736 9707 9698 9618 9614 9614 9744 9723 9718 9685 9682 9678 9675 9685 9661 9643 9611 9566 9524 9519 9486 9488 9467 9467 9420 9393 9366 9402 9396 9402 9372 9414 9420 9413 9413 9401 9363 9335 9353 9386 9390 9401 9381 9492 9442 9439 9434 9404 9399 9419 9379 9313 9365 9329 9315 9318 9421 9421 9355 9313 9271 9250 9227 9222 9256 9245 9219 9191 9243 9245 9195 9195 9180 9166 9142 9115 9070 9070 9041 9038 9068 9064 9045 9028 9010 9091 9065 9037 9025 9025 8975 8966 8966 8952 8997 8986 8970 8955 8937 8926 8888 8853 8842 8817 8797 8788 8774 8755 8749 8729 8704 8677 8656 8633 8613 8611 8604 8588 8586 8564 8556 8535 8521 8465 8465 8444 8444 8444 8431 8429 8414 8402 8382 8366 8352 8333 8311 8300 8293 8277 8273 8261 8251 8247 8231 8208 8198 8197 8111 8101 8100 8095 8081 8076 8074 8054 8046 8031 8021 8009 8006 7986 7981 7958 7946 7934 7922 7905 7899 7895 7870 7866 7852 7842 7839 7830 7828 7788 7788 7788 7767 7767 7764 7758 7754 7749 7742 7735 7724 7724 7717 7711 7699 7692 7686 7682 7671 7664 7654 7639 7632 7619 7599 7587 7587 7580 7575 7575 7566 7542 7540 7526 7520 7504 7504 7493 7485 7467 7456 7447 7436 7427 7425 7416 7405 7385 7374 7365 7363 7353 7349 7340 7331 7319 7319 7316 7313 7309 7308 7304 7300 7295 7291 7287 7283 7271 7266 7248 7246 7235 7233 7228 7220 7215 7205 7190 7177 7166 7135 7131 7075 7075 7059 7047 7013 7002 7002 6985 6964 6954 6902 6888 6880 6880 6877 6866 6866 6866 6856 6856 6853 6853 6849 6841 6833 6821 6771 6771 6761 6761 6751 6751 6743 6738 6738 6731 6726 6720 6714 6710 6701 6695 6681 6664 6664 6653 6651 6643 6643 6642 6642 6639 6638 6633 6632 6628 6624 6620 6613 6606 6598 6580 6579 6579 6565 6564 6562 6562 6560 6558 6553 6553 6550 6547 6544 6540 6537 6531 6526 6518 6513 6513 6511 6510 6508 6504 6502 6455 6455 6435 6433 6423 6404 6401 6392 6392 6387 6344 6341 6322 6322 6310 6310 6310 6308 6306 6304 6301 6297 6296 6294 6291 6291 6289 6287 6287 6276 6275 6274 6262 6261 6239 6239 6238 6238 6236 6234 6226 6226 6225 6219 6219 6178 6178 6178 6178 6157 6157 6156 6133 6133 6132 6127 6127 6127 6126 6125 6123 6120 6116 6115 6104 6104 6102 6100 6100 6096 6095 6095 6092 6078 6077 6071 6071 6068 6068 6068 6067 6064 6063 6063 6063 6063 6063 6056 6055 6055 6052 6052 6048 6046 6046 6038 6036 6035 5969 5969 5968 5968 5960 5946 5946 5934 5934 5923 5923 5922 5919 5918 5913 5913 5913 5906 5906 5906 5906 5905 5905 5905 5905 5903 5903 5899 5897 5895 5890 5890 5890 5890 5890 5889 5886 5886 5884 5880 5878 5878 5878 5875 5875 5875 5875 5872 5872 5870 5870 5849 5849 5849 5839 5839 5819 5811 5811 5810 5810 5810 5810 5804 5804 5804 5804 5804 5798 5798 5794 5788 5788 5786 5786 5786 5780 5777 5753 5753 5753 5753 5746 5746 5746 5739 5739 5735 5735 5726 5717 5715 5715 5715 5715 5713 5713 5713 5713 5713 5713 5713 5713 5712 5712 5712 5709 5709 5706 5694 5692 5690 5690 5663 5663 5651 5651 5606 5606 5588 5570 5570 5567 5567 5567 5564 5564 5562 5559 5548 5547 5529 5521 5516 5515 5505 5505 5505 5505 5505 5505 5498 5496 5484 5484 5482 5482 5466 5466 5464 5461 5459 5459 5456 5456 5453 5451 5451 5451 5447 5447 5445 5445 5444 5440 5439 5432 5431 5430 5429 5411 5411 5411 5411 5409 5409 5409 5404 5404 5400 5395 5377 5377 5377 5377 5373 5373 5373 5365 5365 5363 5363 5359 5358 5358 5357 5357 5356 5355 5355 5355 5355 5355 5354 5347 5347 5347 5340 5340 5340 5340 5336 5336 5330 5329 5323 5322 5322 5321 5320 5320 5320 5312 5312 5311 5311 5311 5310 5310 5310 5310 5310 5310 5310 5310 5308 5308 5306 5304 5304 5304 5304 5304 5304 5304 5304 5304 5304 5304 5304 5304 5304 5304 5304 5303 5303 5303 5302 5302 5297 5297 5297 5287 5287 5287 5287 5287 5287 5287 5287 5287 5287 5287 5287 5287 5287 5287 5287 5287 5287 5287 5287 5287 5287 5287 5287 5287 5287 5287 5287 5287 5287 5287 5274 5274 5274 5271 5271 5271 5271 5271 5271 5271 5271 5269 5269 5269 5269 5268 5268 5268 5268 5268 5268 5268 5268 5268 5264 5264 5264 5264 5264 5263 5263 5263 5263 5263 5263 5263 5263 5263 5263 5263 5263 5263 5263 5263 5262 5262 5262 5262 5262 5255 5255 5254 5254 5254 5253 5253 5253 5253 5235 5235 5222 5202 5202 5178 5167 5163 5163 5161 5161 5161 5155 5155 5155 5155 5155 5155 5155 5155 5155 5155 5155 5155 5155 5155 5155 5155 5155 5155 5155 5155 5155 5155 5155 5155 5155 5155 5141 5141 5141 5139 5139 5139 5139 5139 5139 5139 5139 5139 5139 5139 5139 5139 5139 5137 5137 5137 5137 5137 5137 5137 5137 5137 5137 5137 5137 5137 5137 5131 5131 5131 5131 5131 5131 5131 5131 5131 5126 5126 5126 5124 5124 5124 5124 5124 5124 5123 5121 5121 5120 5120 5120 5117 5117 5117 5117 5117 5117 5117 5117 5117 5117 5117 5117 5117 5117 5117 5117 5117 5117 5117 5117 5117 5117 5117 5117 5117 5117 5117 5116 5116 5116 5116 5116 5116 5116 5111 5111 5111 5111 5111 5111 5111 5111 5111 5111 5111 5111 5111 5111 5111 5111 5111 5111 5111 5111 5111 5111 5111 5111 5110 5110 5110 5110 5108 5108 5108 5108 5108 5108 5108 5108 5108 5108 5108 5108 5108 5108 5108 5108 5108 5108 5108 5108 5108 5108 5108 5108 5108 5108 5108 5108 5108 5107 5107 5107 5107 5107 5107 5107 5107 5106 5106 5106 5106 5105 5105 5083 5083 5083 5083 5083 5083 5083 5083 5083 5083 5083 5083 5083 5083 5083 5083 5083 5083 5083 5083 5083 5083 5083 5083 5083 5083 5083 5083 5083 5083 5083 5083 5083 5083 5083 5083 5083 5083 5083 5083 5083 5083 5083 5083 5083 5083 5083 5083 5083 5083 5083 5083 5083 5083 5083 5083 5083 5083 5083 5083 5083 5083 5083 5083 5083 5083 5083 5083 5083 5083 5083 5083 5083 5083 5083 5083 5083 5083 5083 5083 5083 5083 5083 5083 5083 5083 5083 5083 5083 5083 5083 5083 5083 5083 5083 5083 5083 5083 5083 5083 5083 5083 5083 5083 5083 5083 5083 5083 5083 5083 5083 5083 5083 5083 5083 5083 5083 5083 5083 5083 5083 5083 5083 5083 5083 5083 5083 5083 5083 5083 5083 5083 5083 5083 5083 5083 5083 5083 5083 5083 5083 5083 5083 5083 5083 5083 5083 5083 5083 5083 5083 5083 5083 5083 5083 5083 5083 5083 5083 5083 5083 5083 5083 5083 5083 5083 5083 5083 5083 5083 5083 5083 5083 5083 5083 5083 5083 5083 5083 5083 5083 5083 5083 5083 5083 5083 5083 5083 5081 5081 5081 5081 5081 5081 5081 5081 5081 5081 5081 5081 5081 5081 5081 5081 5081 5081 5081 5081 5081 5081 5081 5081 5081 5081 5081 5081 5081 5081 5081 5081 5081 5081 5081 5081 5081 5081 5081 5081 5081 5081 5081 5081 5081 5081 5081 5081 5081 5081 5081 5081 5081 5081 5081 5081 5081 5081 5081 5081 5081 5081 5081 5081 5081 5081 5081 5081 5081 5081 5081 5081 5081 5081 5081 5081 5081 5081 5081 5081 5081 5081 5081 5081 5081 5081 5081 5081 5081 5081 5081 5081 5081 5081 5081 5081 5081 5081 5081 5081 5081 5081 5081 5081 5081 5081 5081 5081 5081 5081 5081 5081 5081 5081 5081 5081 5081 5081 5081 5081 5081 5081 5081 5081 5081 5081 5081 5081 5081 5081 5081 5081 5081 5081 5081 5081 5081 5081 5081 5081 5081 5081 5081 5081 5081 5081 5081 5081 5081 5081 5081 5081 5081 5081 5081 5081 5081 5081 5078 5078 5078 5078 5078 5078 5078 5078 5078 5078 5078 5078 5078 5078 5078 5078 5078 5078 5078 5078 5078 5078 5078 5078 5078 5078 5078 5078 5076 5076 5071 5071 5069 5069 5069 5069 5069 5069 5069 5069 5069 5069 5069 5069 5069 5069 5069 5069 5069 5069 5058 5058 5058 5058 5058 5058 5058 5058 5057 5057 5057 5057 5057 5057 5057 5057 5057 5057 5057 5057 5057 5057 5057 5057 5057 5057 5057 5057 5057 5057 5057 5057 5057 5057 5057 5057 5057 5057 5057 5057 5057 5057 5057 5057 5057 5057 5057 5057 5057 5057 5057 5057 5057 5057 5057 5057 5057 5057 5057 5057 5057 5057 5057 5057 5057 5057 5057 5057 5057 5057 5057 5057 5057 5057 5057 5057 5057 5057 5057 5057 5057 5057 5057 5057 5057 5057 5057 5057 5057 5057 5057 5057 5057 5057 5057 5057 5057 5057 5057 5057 5057 5057 5057 5057 5057 5057 5057 5057 5057 5057 5057 5057 5057 5057 5057 5057 5057 5057 5057 5057 5057 5057 5057 5057 5057 5057 5057 5057 5057 5057 5057 5057 5057 5057 5057 5057 5057 5057 5057 5057 5057 5057 5057 5057 5057 5057 5057 5057 5057 5057 5057 5057 5057 5057 5057 5057 5057 5057 5057 5057 5057 5057 5057 5057 5057 5057 5057 5057 5057 5057 5057 5057 5057 5057 5057 5057 5057 5057 5057 5057 5057 5057 5057 5057 5057 5057 5057 5057 5057 5057 5057 5057 5057 5057 5057 5057 5057 5057 5057 5057 5057 5057 5057 5057 5057 5057 5057 5057 5057 5057 5057 5057 5057 5057 5057 5057 5057 5057 5057 5057 5057 5057 5057 5057 5057 5057 5057 5057 5057 5057 5057 5057 5057 5057 5057 5057 5057 5057 5057 5057 5057 5057 5056 5056 5056 5056 5056 5056 5056 5056 5056 5056 5056 5056 5056 5056 5056 5056 5056 5056 5056 5056 5056 5056 5056 5056 5056 5056 5056 5056 5056 5056 5056 5056 5056 5056 5055 5055 5055 5055 5055 5055 5055 5055 5055 5055 5055 5055 5055 5055 5055 5055 5055 5055 5055 5055 5055 5055 5055 5055 5055 5055 5055 5055 5055 5055 5055 5055 5055 5055 5055 5055 5055 5055 5055 5055 5055 5055 5055 5055 5055 5055 5055 5055 5055 5055 5055 5055 5055 5055 5055 5055 5055 5055 5055 5055 5055 5055 5055 5055 5055 5055 5055 5055 5055 5055 5055 5055 5055 5055 5055 5055 5055 5055 5055 5055 5055 5055 5055 5055 5055 5055 5055 5055 5055 5055 5055 5055 5055 5055 5055 5055 5055 5055 5055 5055 5055 5055 5055 5055 5055 5055 5055 5055 5055 5055 5055 5055 5055 5055 5055 5055 5055 5055 5055 5055 5055 5055 5055 5055 5055 5055 5055 5055 5055 5055 5055 5055 5055 5055 5055 5055 5055 5055 5055 5055 5055 5055 5055 5055 5055 5055 5055 5055 5055 5055 5055 5055 5055 5055 5055 5055 5055 5055 5055 5055 5055 5055 5055 5055 5055 5055 5055 5055 5055 5055 5055 5055 5055 5055 5055 5055 5055 5055 5055 5055 5055 5055 5055 5055 5055 5055 5055 5055 5055 5055 5055 5055 5055 5055 5055 5055 5055 5055 5055 5055 5055 5055 5055 5055 5055 5055 5055 5055 5055 5055 5055 5055 5055 5055 5055 5055 5055 5055 5055 5055 5055 5055 5055 5055 5055 5055 5055 5055 5055 5055 5055 5055 5055 5055 5055 5055 5055 5055 5055 5055 5055 5055 5055 5055 5055 5055 5055 5055 5052 5052 5052 5052 5052 5052 5052 5052 5052 5052 5052 5052 5052 5052 5052 5052 5052 5052 5052 5052 5052 5052 5052 5052 5052 5052 5052 5052 5052 5052 5052 5052 5052 5052 5052 5052 5052 5052 5052 5052 5052 5052 5052 5052 5052 5052 5052 5052 5052 5052 5052 5052 5052 5052 5052 5052 5052 5052 5052 5052 5052 5052 5052 5052 5052 5052 5052 5052 5052 5052 5052 5052 5052 5052 5052 5052 5052 5052 5052 5052 5052 5052 5052 5052 5052 5052 5052 5052 5052 5052 5052 5052 5052 5052 5052 5052 5052 5052 5052 5052 5052 5052 5052 5052 5052 5052 5052 5052 5052 5052 5052 5052 5052 5052 5052 5052 5052 5052 5052 5052 5052 5052 5052 5052 5052 5052 5052 5052 5052 5052 5052 5052 5052 5052 5052 5052 5052 5052 5052 5052 5052 5052 5052 5052 5052 5052 5052 5052 5052 5052 5052 5052 5052 5052 5052 5052 5052 5052 5052 5052 5052 5052 5052 5052 5052 5052 5052 5052 5052 5052 5052 5052 5052 5052 5052 5052 5052 5052 5052 5052 5052 5052 5052 5052 5052 5052 5052 5052 5052 5052 5052 5052 5052 5052 5052 5052 5052 5052 5052 5052 5052 5052 5052 5052 5052 5052 5052 5052 5052 5052 5052 5052 5052 5052 5052 5052 5052 5052 5052 5052 5052 5052 5052 5052 5052 5052 5052 5052 5052 5052 5052 5052 5052 5052 5052 5052 5052 5052 5052 5052 5052 5052 5052 5052 5052 5052 5052 5052 5052 5052 5052 5052 5052 5052 5052 5052 5052 5052 5052 5052 5052 5052 5052 5052 5052 5052 5052 5052 5052 5052 5052 5052 5052 5052 5052 5052 5052 5052 5052 5052 5052 5052 5052 5052 5052 5052 5052 5052 5052 5052 5052 5052 5052 5052 5052 5052 5052 5052 5052 5052 5052 5052 5052 5052 5052 5052 5052 5052 5052 5052 5052 5052 5052 5052 5052 5052 5052 5052 5052 5052 5052 5052 5052 5052 5052 5052 5052 5052 5052 5052 5052 5052 5052 5052 5052 5052 5052 5052 5052 5052 5052 5052 5052 5052 5052 5052 5052 5052 5052 5052 5052 5052 5052 5052 5052 5052 5052 5052 5052 5052 5052 5052 5052 5052 5052 5052 5052 5052 5052 5052 5052 5052 5052 5052 5052 5052 5052 5052 5052 5052 5052 5052 5052 5052 5052 5052 5052 5052 5052 5052 5052 5052 5052 5052 5052 5052 5052 5052 5052 5052 5052 5052 5052 5052 5052 5052 5052 5052 5052 5052 5052 5052 5052 5052 5052 5052 5052 5052 5052 5052 5052 5052 5052 5052 5052 5052 5052 5052 5052 5052 5052 5052 5052 5052 5052 5052 5052 5052 5052 5052 5052 5052 5052 5052 5052 5052 5052 5052 5052 5052 5052 5052 5052 5052 5052 5052 5052 5052 5052 5052 5052 5052 5052 5052 5052 5052 5052 5052 5052 5052 5052 5052 5052 5052 5052 5052 5052 5052 5052 5052 5052 5052 5052 5052 5052 5052 5052 5052 5052 5052 5052 5052 5052 5052 5052 5052 5052 5052 5052 5052 5052 
16800 16561 15949 15189 14372 13879 13447 13096 12738 12392 11884 11821 11597 11242 11044 10866 10721 10305 10089 9705 9561 9277 8934 8713 8502 8317 8011 7826 7602 7323 7246 7067 6764 6607 6540 6374 6204 6074 6009 5886 5753 5649 5587 5473 5389 5300 5140 5003 4994 4900 4844 4750 4650 4497 4438 4385 4306 4180 4136 4099 4038 4035 3973 3909 3858 3830 3735 3678 3556 3519 3493 3413 3346 3319 3235 3162 3043 2810 2724 2675 2649 2629 2596 2565 2532 2492 2461 2414 2364 2327 2263 2191 2146 2091 2086 2062 2040 2009 1995 1964 1937 1901 1878 1842 1811 1767 1760 1721 1700 1675 1661 1638 1627 1607 1579 1564 1550 1517 1491 1465 1444 1418 1404 1375 1355 1333 1318 1307 1275 1268 1239 1227 1192 1185 1166 1161 1146 1132 1102 1088 1086 1079 1052 1036 1036 1017 1016 980 941 941 932 927 916 904 888 877 873 855 845 845 836 836 820 820 819 808 804 804 797 791 787 783 769 762 750 750 716 712 706 702 686 686 681 673 666 657 650 650 640 640 635 631 629 586 579 569 569 562 556 553 547 542 528 524 506 506 470 466 455 450 447 447 443 441 435 435 432 427 424 413 413 407 407 400 400 397 395 392 389 388 384 384 383 378 377 374 373 371 361 361 357 357 353 346 346 334 334 333 333 320 319 318 316 315 315 312 312 311 308 306 306 306 306 306 305 301 301 300 290 289 286 286 283 283 283 279 275 275 274 274 250 250 250 224 224 219 200 200 195 193 190 174 165 162 153 140 140 140 140 140 139 139 139 139 139 130 130 128 127 127 126 126 126 126 126 126 126 125 125 125 125 125 111 111 111 111 60 60 60 46 40 20 10 0 0 0 0 0 0 0 0 0 0 0 0 0 0 0 0 0 0 0 0 0 0 0 0 0 0 0 0 0 0 0 0 0 0 0 0 0 0 0 0 0 0 0 0 0 0 0 0 0 0 0 0 0 0 0 0 0 0 0 0 0 0 0 0 0 0 0 0 0 0 0 0 0 0 0 0 0 0 0 0 0 0 0 0 0 0 0 0 0 0 0 0 0 0 0 0 0 0 0 0 0 0 0 0 0 0 0 0 0 0 0 0 0 0 0 0 0 0 0 0 0 0 0 0 0 0 0 0 0 0 0 0 0 0 0 0 0 0 0 0 0 0 0 0 0 0 0 0 0 0 0 0 0 0 0 0 0 0 0 0 0 0 0 0 0 0 0 0 0 0 0 0 0 0 0 0 0 0 0 0 0 0 0 0 0 0 0 0 0 0 0 0 0 0 0 0 0 0 0 0 0 0 0 0 0 0 0 0 0 0 0 0 0 0 0 0 0 0 0 0 0 0 0 0 0 0 0 0 0 0 0 0 0 0 0 0 0 0 0 0 0 0 0 0 0 0 0 0 0 0 0 0 0 0 0 0 0 0 0 0 0 0 0 0 0 0 0 0 0 0 0 0 0 0 0 0 0 0 0 0 0 0 0 0 0 0 0 0 0 0 0 0 0 0 0 0 0 0 0 0 0 0 0 0 0 0 0 0 0 0 0 0 0 0 0 0 0 0 0 0 0 0 0 0 0 0 0 0 0 0 0 0 0 0 0 0 0 0 0 0 0 0 0 0 0 0 0 0 0 0 0 0 0 0 0 0 0 0 0 0 0 0 0 0 0 0 0 0 0 0 0 0 0 0 0 0 0 0 0 0 0 0 0 0 0 0 0 0 0 0 0 0 0 0 0 0 0 0 0 0 0 0 0 0 0 0 0 0 0 0 0 0 0 0 0 0 0 0 0 0 0 0 0 0 0 0 0 0 0 0 0 0 0 0 0 0 0 0 0 0 0 0 0 0 0 0 0 0 0 0 0 0 0 0 0 0 0 0 0 0 0 0 0 0 0 0 0 0 0 0 0 0 0 0 0 0 0 0 0 0 0 0 0 0 0 0 0 0 0 0 0 0 0 0 0 0 0 0 0 0 0 0 0 0 0 0 0 0 0 0 0 0 0 0 0 0 0 0 0 0 0 0 0 0 0 0 0 0 0 0 0 0 0 0 0 0 0 0 0 0 0 0 0 0 0 0 0 0 0 0 0 0 0 0 0 0 0 0 0 0 0 0 0 0 0 0 0 0 0 0 0 0 0 0 0 0 0 0 0 0 0 0 0 0 0 0 0 0 0 0 0 0 0 0 0 0 0 0 0 0 0 0 0 0 0 0 0 0 0 0 0 0 0 0 0 0 0 0 0 0 0 0 0 0 0 0 0 0 0 0 0 0 0 0 0 0 0 0 0 0 0 0 0 0 0 0 0 0 0 0 0 0 0 0 0 0 0 0 0 0 0 0 0 0 0 0 0 0 0 0 0 0 0 0 0 0 0 0 0 0 0 0 0 0 0 0 0 0 0 0 0 0 0 0 0 0 0 0 0 0 0 0 0 0 0 0 0 0 0 0 0 0 0 0 0 0 0 0 0 0 0 0 0 0 0 0 0 0 0 0 0 0 0 0 0 0 0 0 0 0 0 0 0 0 0 0 0 0 0 0 0 0 0 0 0 0 0 0 0 0 0 0 0 0 0 0 0 0 0 0 0 0 0 0 0 0 0 0 0 0 0 0 0 0 0 0 0 0 0 0 0 0 0 0 0 0 0 0 0 0 0 0 0 0 0 0 0 0 0 0 0 0 0 0 0 0 0 0 0 0 0 0 0 0 0 0 0 0 0 0 0 0 0 0 0 0 0 0 0 0 0 0 0 0 0 0 0 0 0 0 0 0 0 0 0 0 0 0 0 0 0 0 0 0 0 0 0 0 0 0 0 0 0 0 0 0 0 0 0 0 0 0 0 0 0 0 0 0 0 0 0 0 0 0 0 0 0 0 0 0 0 0 0 0 0 0 0 0 0 0 0 0 0 0 0 0 0 0 0 0 0 0 0 0 0 0 0 0 0 0 0 0 0 0 0 0 0 0 0 0 0 0 0 0 0 0 0 0 0 0 0 0 0 0 0 0 0 0 0 0 0 0 0 0 0 0 0 0 0 0 0 0 0 0 0 0 0 0 0 0 0 0 0 0 0 0 0 0 0 0 0 0 0 0 0 0 0 0 0 0 0 0 0 0 0 0 0 0 0 0 0 0 0 0 0 0 0 0 0 0 0 0 0 0 0 0 0 0 0 0 0 0 0 0 0 0 0 0 0 0 0 0 0 0 0 0 0 0 0 0 0 0 0 0 0 0 0 0 0 0 0 0 0 0 0 0 0 0 0 0 0 0 0 0 0 0 0 0 0 0 0 0 0 0 0 0 0 0 0 0 0 0 0 0 0 0 0 0 0 0 0 0 0 0 0 0 0 0 0 0 0 0 0 0 0 0 0 0 0 0 0 0 0 0 0 0 0 0 0 0 0 0 0 0 0 0 0 0 0 0 0 0 0 0 0 0 0 0 0 0 0 0 0 0 0 0 0 0 0 0 0 0 0 0 0 0 0 0 0 0 0 0 0 0 0 0 0 0 0 0 0 0 0 0 0 0 0 0 0 0 0 0 0 0 0 0 0 0 0 0 0 0 0 0 0 0 0 0 0 0 0 0 0 0 0 0 0 0 0 0 0 0 0 0 0 0 0 0 0 0 0 0 0 0 0 0 0 0 0 0 0 0 0 0 0 0 0 0 0 0 0 0 0 0 0 0 0 0 0 0 0 0 0 0 0 0 0 0 0 0 0 0 0 0 0 0 0 0 0 0 0 0 0 0 0 0 0 0 0 0 0 0 0 0 0 0 0 0 0 0 0 0 0 0 0 0 0 0 0 0 0 0 0 0 0 0 0 0 0 0 0 0 0 0 0 0 0 0 0 0 0 0 0 0 0 0 0 0 0 0 0 0 0 0 0 0 0 0 0 0 0 0 0 0 0 0 0 0 0 0 0 0 0 0 0 0 0 0 0 0 0 0 0 0 0 0 0 0 0 0 0 0 0 0 0 0 0 0 0 0 0 0 0 0 0 0 0 0 0 0 0 0 0 0 0 0 0 0 0 0 0 0 0 0 0 0 0 0 0 0 0 0 0 0 0 0 0 0 0 0 0 0 0 0 0 0 0 0 0 0 0 0 0 0 0 0 0 0 0 0 0 0 0 0 0 0 0 0 0 0 0 0 0 0 0 0 0 0 0 0 0 0 0 0 0 0 0 0 0 0 0 0 0 0 0 0 0 0 0 0 0 0 0 0 0 0 0 0 0 0 0 0 0 0 0 0 0 0 0 0 0 0 0 0 0 0 0 0 0 0 0 0 0 0 0 0 0 0 0 0 0 0 0 0 0 0 0 0 0 0 0 0 0 0 0 0 0 0 0 0 0 0 0 0 0 0 0 0 0 0 0 0 0 0 0 0 0 0 0 0 0 0 0 0 0 0 0 0 0 0 0 0 0 0 0 0 0 0 0 0 0 0 0 0 0 0 0 0 0 0 0 0 0 0 0 0 0 0 0 0 0 0 0 0 0 0 0 0 0 0 0 0 0 0 0 0 0 0 0 0 0 0 0 0 0 0 0 0 0 0 0 0 0 0 0 0 0 0 0 0 0 0 0 0 0 0 0 0 0 0 0 0 0 0 0 0 0 0 0 0 0 0 0 0 0 0 0 0 0 0 0 0 0 0 0 0 0 0 0 0 0 0 0 0 0 0 0 0 0 0 0 0 0 0 0 0 0 0 0 0 0 0 0 0 0 0 0 0 0 0 0 0 0 0 0 0 0 0 0 0 0 0 0 0 0 0 0 0 0 0 0 0 0 0 0 0 0 0 0 0 0 0 0 0 0 0 0 0 0 0 0 0 0 0 0 0 0 0 0 0 0 0 0 0 0 0 0 0 0 0 0 0 0 0 0 0 0 0 0 0 0 0 0 0 0 0 0 0 0 0 0 0 0 0 0 0 0 0 0 0 0 0 0 0 0 0 0 0 0 0 0 0 0 0 0 0 0 0 0 0 0 0 0 0 0 0 0 0 0 0 0 0 0 0 0 0 0 0 0 0 0 0 0 0 0 0 0 0 0 0 0 0 0 0 0 0 0 0 0 0 0 0 0 0 0 0 0 0 0 0 0 0 0 0 0 0 0 0 0 0 0 0 0 0 0 0 0 0 0 0 0 0 0 0 0 0 0 0 0 0 0 0 0 0 0 0 0 0 0 0 0 0 0 0 0 0 0 0 0 0 0 0 0 0 0 0 0 0 0 0 0 0 0 0 0 0 0 0 0 0 0 0 0 0 0 0 0 0 0 0 0 0 0 0 0 0 0 0 0 0 0 0 0 0 0 0 0 0 0 0 0 0 0 0 0 0 0 0 0 0 0 0 0 0 0 0 0 0 0 0 0 0 0 0 0 0 0 0 0 0 0 0 0 0 0 0 0 0 0 0 0 0 0 0 0 0 0 0 0 0 0 0 0 0 0 0 0 0 0 0 0 0 0 0 0 0 0 0 0 0 0 0 0 0 0 0 0 0 0 0 0 0 0 0 0 0 0 0 0 0 0 0 0 0 0 0 0 0 0 0 0 0 0 0 0 0 0 0 0 0 0 0 0 0 0 0 0 0 0 0 0 0 0 0 0 0 0 0 0 0 0 0 0 0 0 0 0 0 0 0 0 0 0 0 0 0 0 0 0 0 0 0 0 0 0 0 0 0 0 0 0 0 0 0 0 0 0 0 0 0 0 0 0 0 0 0 0 0 0 0 0 0 0 0 0 0 0 0 0 0 0 0 0 0 0 0 0 0 0 0 0 0 0 0 0 0 0 0 0 0 0 0 0 0 0 0 0 0 0 0 0 0 0 0 0 0 0 0 0 0 0 0 0 0 0 0 0 0 0 0 0 0 0 0 0 0 0 0 0 0 0 0 0 0 0 0 0 0 0 0 0 0 0 0 0 0 0 0 0 0 0 0 0 0 0 0 0 0 0 0 0 0 0 0 0 0 0 0 0 0 0 0 0 0 0 0 0 0 0 0 0 0 0 0 0 0 0 0 0 0 0 0 0 0 0 0 0 0 0 0 0 0 0 0 0 0 0 0 0 0 0 0 0 0 0 0 0 0 0 0 0 0 